c Choco 231113
v <instantiation id='sol1' type='solution' ><list>x[0] x[1] x[2] x[3] x[4] </list><values>1 3 5 2 4 </values></instantiation>

s SATISFIABLE
v <instantiation id='sol1' type='solution' ><list>x[0] x[1] x[2] x[3] x[4] </list><values>1 3 5 2 4 </values></instantiation>
d FOUND SOLUTIONS 1

